[VALIDATOR STDOUT]
Checking plan: /home/jfan5/Safety-gen/runs/benchmark/optic/grid_20260205_115226/grid/optic_results/grid_x6_y6_sh2_k4_l4_s6001.plan
Plan executed successfully - checking goal
Plan valid
Final value: 58 

Successful plans:
Value: 58
 /home/jfan5/Safety-gen/runs/benchmark/optic/grid_20260205_115226/grid/optic_results/grid_x6_y6_sh2_k4_l4_s6001.plan 58
